c read Graph
c width = 106
c time = 77 ms
c width = 9
c time = 125 ms
c width = 8
c time = 172 ms
c width = 7
c time = 4622 ms
c width = 7
c time = 5419 ms
s td 112 8 119
b 1 1 2 18
b 2 2 3 18 19
b 3 15 16 33 34
b 4 3 18 19 35
b 5 15 33 34 51
b 6 69 86 87 104
b 7 85 101 102 118
b 8 69 87 104 105
b 9 85 101 117 118
b 10 3 4 19 20 35
b 11 4 5 19 20 21 35
b 12 5 6 19 20 21 22 35
b 13 6 7 19 20 21 22 23 35
b 14 7 19 20 21 22 23 35 36
b 15 7 20 21 22 23 35 36 37
b 16 7 21 22 23 35 36 37 38
b 17 7 22 23 35 36 37 38 39
b 18 7 23 35 36 37 38 39 52
b 19 7 23 36 37 38 39 52 53
b 20 7 23 37 38 39 52 53 54
b 21 7 23 38 39 52 53 54 55
b 22 7 23 39 52 53 54 55 69
b 23 7 23 39 53 54 55 69 70
b 24 7 23 39 54 55 69 70 71
b 25 7 23 39 55 69 70 71 87
b 26 7 23 39 55 69 71 87 105
b 27 7 23 39 55 71 87 88 105
b 28 7 23 39 55 71 72 88 105
b 29 7 23 39 55 56 72 88 105
b 30 7 23 39 40 56 72 88 105
b 31 7 23 24 40 56 72 88 105
b 32 7 8 24 40 56 72 88 105
b 33 8 24 40 56 72 88 89 105
b 34 8 24 40 56 72 73 89 105
b 35 8 24 40 56 57 73 89 105
b 36 8 24 40 41 57 73 89 105
b 37 8 24 25 41 57 73 89 105
b 38 8 9 25 41 57 73 89 105
b 39 9 25 41 57 73 89 105 106
b 40 9 25 41 57 73 89 90 106
b 41 9 25 41 57 73 74 90 106
b 42 9 25 41 57 58 74 90 106
b 43 9 25 41 42 58 74 90 106
b 44 9 25 26 42 58 74 90 106
b 45 9 10 26 42 58 74 90 106
b 46 10 26 42 58 74 90 106 107
b 47 10 26 42 58 74 90 91 107
b 48 10 26 42 58 74 75 91 107
b 49 10 26 42 58 59 75 91 107
b 50 10 26 42 43 59 75 91 107
b 51 10 26 27 43 59 75 91 107
b 52 10 11 27 43 59 75 91 107
b 53 11 27 43 59 75 91 107 108
b 54 11 27 43 59 75 91 92 108
b 55 11 27 43 59 75 76 92 108
b 56 11 27 43 59 60 76 92 108
b 57 11 27 43 44 60 76 92 108
b 58 11 27 28 44 60 76 92 108
b 59 11 12 28 44 60 76 92 108
b 60 12 28 44 60 76 92 108 109
b 61 12 28 44 60 76 92 93 109
b 62 12 28 44 60 76 77 93 109
b 63 12 28 44 60 61 77 93 109
b 64 12 28 44 45 61 77 93 109
b 65 12 28 29 45 61 77 93 109
b 66 12 13 29 45 61 77 93 109
b 67 13 29 45 61 77 93 109 110
b 68 13 29 45 61 77 93 94 110
b 69 13 29 45 61 77 78 94 110
b 70 13 29 45 61 62 78 94 110
b 71 13 29 45 46 62 78 94 110
b 72 13 29 46 62 78 94 110 111
b 73 13 29 46 62 78 94 95 111
b 74 13 29 46 62 78 79 95 111
b 75 13 29 46 62 63 79 95 111
b 76 13 29 46 47 63 79 95 111
b 77 13 29 31 47 63 79 95 111
b 78 13 31 47 63 79 95 111 112
b 79 13 31 47 63 79 95 96 112
b 80 13 31 47 63 79 80 96 112
b 81 13 31 47 63 64 80 96 112
b 82 13 31 47 48 64 80 96 112
b 83 13 31 48 64 80 96 112 113
b 84 13 31 48 64 80 96 97 113
b 85 13 31 48 64 80 81 97 113
b 86 13 31 48 64 81 97 113 114
b 87 13 31 48 64 81 97 98 114
b 88 13 31 48 64 81 82 98 114
b 89 13 31 48 64 66 82 98 114
b 90 13 31 48 66 82 98 114 115
b 91 13 31 48 66 82 98 99 115
b 92 13 31 48 66 82 99 115 116
b 93 13 31 48 66 82 99 100 116
b 94 13 31 48 66 82 84 100 116
b 95 13 31 48 66 68 84 100 116
b 96 68 84 100 116 117
b 97 68 84 85 100 117
b 98 84 85 100 101 117
b 99 13 31 48 50 66 68 84
b 100 50 66 67 68 84
b 101 13 31 32 48 50 66 68
b 102 13 15 31 32 50 68
b 103 13 14 15 31
b 104 15 32 50 51 68
b 105 15 32 33 50 51
b 106 32 48 49 50 66
b 107 13 29 30 31 47
b 108 48 64 65 66 82
b 109 66 82 83 84 100
b 110 102 118 119
b 111 86 103 104
b 112 16 17 34
1 2
2 4
3 112
3 5
4 10
5 105
6 111
6 8
7 110
7 9
8 26
9 98
10 11
11 12
12 13
13 14
14 15
15 16
16 17
17 18
18 19
19 20
20 21
21 22
22 23
23 24
24 25
25 26
26 27
27 28
28 29
29 30
30 31
31 32
32 33
33 34
34 35
35 36
36 37
37 38
38 39
39 40
40 41
41 42
42 43
43 44
44 45
45 46
46 47
47 48
48 49
49 50
50 51
51 52
52 53
53 54
54 55
55 56
56 57
57 58
58 59
59 60
60 61
61 62
62 63
63 64
64 65
65 66
66 67
67 68
68 69
69 70
70 71
71 72
72 73
73 74
74 75
75 76
76 77
77 107
77 78
78 79
79 80
80 81
81 82
82 83
83 84
84 85
85 86
86 87
87 88
88 89
89 108
89 90
90 91
91 92
92 93
93 94
94 109
94 95
95 99
95 96
96 97
97 98
99 100
99 101
101 106
101 102
102 103
102 104
104 105
